c CNF file corresponding to a (partial) station packing problem.
p cnf 4659 229
1 2 3 4 5 6 7 8 9 10 11 12 13 14 0
-1 -2 0
-1 -3 0
-1 -4 0
-1 -5 0
-1 -6 0
-1 -7 0
-1 -8 0
-1 -9 0
-1 -10 0
-1 -11 0
-1 -12 0
-1 -13 0
-1 -14 0
-2 -3 0
-2 -4 0
-2 -5 0
-2 -6 0
-2 -7 0
-2 -8 0
-2 -9 0
-2 -10 0
-2 -11 0
-2 -12 0
-2 -13 0
-2 -14 0
-3 -4 0
-3 -5 0
-3 -6 0
-3 -7 0
-3 -8 0
-3 -9 0
-3 -10 0
-3 -11 0
-3 -12 0
-3 -13 0
-3 -14 0
-4 -5 0
-4 -6 0
-4 -7 0
-4 -8 0
-4 -9 0
-4 -10 0
-4 -11 0
-4 -12 0
-4 -13 0
-4 -14 0
-5 -6 0
-5 -7 0
-5 -8 0
-5 -9 0
-5 -10 0
-5 -11 0
-5 -12 0
-5 -13 0
-5 -14 0
-6 -7 0
-6 -8 0
-6 -9 0
-6 -10 0
-6 -11 0
-6 -12 0
-6 -13 0
-6 -14 0
-7 -8 0
-7 -9 0
-7 -10 0
-7 -11 0
-7 -12 0
-7 -13 0
-7 -14 0
-8 -9 0
-8 -10 0
-8 -11 0
-8 -12 0
-8 -13 0
-8 -14 0
-9 -10 0
-9 -11 0
-9 -12 0
-9 -13 0
-9 -14 0
-10 -11 0
-10 -12 0
-10 -13 0
-10 -14 0
-11 -12 0
-11 -13 0
-11 -14 0
-12 -13 0
-12 -14 0
-13 -14 0
4643 4644 4645 4646 4647 4648 4649 4650 4651 4652 4653 4654 4655 4656 4657 4658 4659 0
-4643 -4644 0
-4643 -4645 0
-4643 -4646 0
-4643 -4647 0
-4643 -4648 0
-4643 -4649 0
-4643 -4650 0
-4643 -4651 0
-4643 -4652 0
-4643 -4653 0
-4643 -4654 0
-4643 -4655 0
-4643 -4656 0
-4643 -4657 0
-4643 -4658 0
-4643 -4659 0
-4644 -4645 0
-4644 -4646 0
-4644 -4647 0
-4644 -4648 0
-4644 -4649 0
-4644 -4650 0
-4644 -4651 0
-4644 -4652 0
-4644 -4653 0
-4644 -4654 0
-4644 -4655 0
-4644 -4656 0
-4644 -4657 0
-4644 -4658 0
-4644 -4659 0
-4645 -4646 0
-4645 -4647 0
-4645 -4648 0
-4645 -4649 0
-4645 -4650 0
-4645 -4651 0
-4645 -4652 0
-4645 -4653 0
-4645 -4654 0
-4645 -4655 0
-4645 -4656 0
-4645 -4657 0
-4645 -4658 0
-4645 -4659 0
-4646 -4647 0
-4646 -4648 0
-4646 -4649 0
-4646 -4650 0
-4646 -4651 0
-4646 -4652 0
-4646 -4653 0
-4646 -4654 0
-4646 -4655 0
-4646 -4656 0
-4646 -4657 0
-4646 -4658 0
-4646 -4659 0
-4647 -4648 0
-4647 -4649 0
-4647 -4650 0
-4647 -4651 0
-4647 -4652 0
-4647 -4653 0
-4647 -4654 0
-4647 -4655 0
-4647 -4656 0
-4647 -4657 0
-4647 -4658 0
-4647 -4659 0
-4648 -4649 0
-4648 -4650 0
-4648 -4651 0
-4648 -4652 0
-4648 -4653 0
-4648 -4654 0
-4648 -4655 0
-4648 -4656 0
-4648 -4657 0
-4648 -4658 0
-4648 -4659 0
-4649 -4650 0
-4649 -4651 0
-4649 -4652 0
-4649 -4653 0
-4649 -4654 0
-4649 -4655 0
-4649 -4656 0
-4649 -4657 0
-4649 -4658 0
-4649 -4659 0
-4650 -4651 0
-4650 -4652 0
-4650 -4653 0
-4650 -4654 0
-4650 -4655 0
-4650 -4656 0
-4650 -4657 0
-4650 -4658 0
-4650 -4659 0
-4651 -4652 0
-4651 -4653 0
-4651 -4654 0
-4651 -4655 0
-4651 -4656 0
-4651 -4657 0
-4651 -4658 0
-4651 -4659 0
-4652 -4653 0
-4652 -4654 0
-4652 -4655 0
-4652 -4656 0
-4652 -4657 0
-4652 -4658 0
-4652 -4659 0
-4653 -4654 0
-4653 -4655 0
-4653 -4656 0
-4653 -4657 0
-4653 -4658 0
-4653 -4659 0
-4654 -4655 0
-4654 -4656 0
-4654 -4657 0
-4654 -4658 0
-4654 -4659 0
-4655 -4656 0
-4655 -4657 0
-4655 -4658 0
-4655 -4659 0
-4656 -4657 0
-4656 -4658 0
-4656 -4659 0
-4657 -4658 0
-4657 -4659 0
-4658 -4659 0
